(set-logic QF_UFLIAFS)
(declare-fun x!16 () Int)
(declare-fun c!17 () (FiniteSet Int))
(declare-fun c1!18 () (FiniteSet Int))
(declare-fun alloc1!19 () (FiniteSet Int))
(declare-fun alloc0!20 () (FiniteSet Int))
(declare-fun alloc2!21 () (FiniteSet Int))
(assert
(and (set.in x!16 c!17)
     (= c1!18 (set.difference c!17 (set.singleton x!16)))
     (<= (set.size (set.difference alloc1!19 alloc0!20)) 1)
     (<= (set.size (set.difference alloc2!21 alloc1!19))
         (set.size c1!18))
     (> (set.size (set.difference alloc2!21 alloc0!20))
        (set.size c!17)))
)
(check-sat)
